NAME: random-94-32711
TYPE: TSP
COMMENT: size=94 seed=32711
DIMENSION: 190
EDGE_WEIGHT_TYPE: EUC_2D
NODE_COORD_SECTION
+0 777 645
-0 777 645
+1 961 578
-1 698 976
+2 913 721
-2 872 785
+3 705 752
-3 801 64
+4 906 922
-4 213 790
+5 1 304
-5 997 182
+6 494 671
-6 213 328
+7 447 593
-7 248 282
+8 537 693
-8 91 871
+9 51 865
-9 870 81
+10 777 212
-10 637 875
+11 618 776
-11 441 168
+12 694 902
-12 127 114
+13 669 360
-13 51 828
+14 806 495
-14 403 326
+15 318 85
-15 803 619
+16 233 257
-16 512 439
+17 814 799
-17 312 936
+18 724 766
-18 799 530
+19 133 310
-19 52 141
+20 299 134
-20 426 771
+21 140 621
-21 601 228
+22 290 176
-22 352 513
+23 201 619
-23 927 642
+24 163 285
-24 995 595
+25 186 785
-25 716 757
+26 291 285
-26 38 860
+27 180 409
-27 249 622
+28 115 433
-28 452 557
+29 740 216
-29 682 830
+30 388 673
-30 928 191
+31 132 202
-31 30 821
+32 967 593
-32 704 652
+33 3 83
-33 197 477
+34 636 457
-34 152 238
+35 449 797
-35 494 165
+36 868 653
-36 607 503
+37 376 853
-37 926 292
+38 611 311
-38 820 705
+39 311 319
-39 357 543
+40 224 918
-40 145 214
+41 802 216
-41 123 769
+42 755 287
-42 409 544
+43 388 383
-43 456 840
+44 831 956
-44 754 546
+45 584 922
-45 125 257
+46 812 855
-46 846 278
+47 846 747
-47 879 398
+48 152 844
-48 947 34
+49 222 862
-49 379 600
+50 45 802
-50 968 863
+51 297 904
-51 988 394
+52 858 946
-52 175 486
+53 657 420
-53 884 398
+54 264 230
-54 557 647
+55 831 864
-55 160 332
+56 945 658
-56 934 771
+57 347 363
-57 11 49
+58 763 833
-58 848 118
+59 27 582
-59 654 514
+60 882 704
-60 334 24
+61 925 976
-61 382 260
+62 958 174
-62 791 502
+63 329 90
-63 181 31
+64 58 874
-64 583 34
+65 626 796
-65 875 549
+66 342 882
-66 629 565
+67 810 949
-67 925 510
+68 656 534
-68 277 190
+69 164 817
-69 157 487
+70 368 542
-70 616 853
+71 343 233
-71 267 334
+72 385 94
-72 487 846
+73 731 849
-73 90 949
+74 84 928
-74 606 77
+75 905 301
-75 630 386
+76 38 188
-76 95 366
+77 252 351
-77 437 693
+78 681 785
-78 957 361
+79 514 185
-79 133 268
+80 815 549
-80 632 809
+81 298 799
-81 955 728
+82 332 897
-82 630 533
+83 362 945
-83 689 358
+84 249 240
-84 747 335
+85 102 390
-85 288 255
+86 758 977
-86 357 195
+87 739 860
-87 691 503
+88 455 243
-88 651 605
+89 234 773
-89 126 318
+90 418 139
-90 44 469
+91 901 656
-91 630 655
+92 555 704
-92 109 757
+93 812 601
-93 912 474
+94 675 776
-94 867 769
PRECEDENCE_SECTION
+0 -0
+1 -1
+2 -2
+3 -3
+4 -4
+5 -5
+6 -6
+7 -7
+8 -8
+9 -9
+10 -10
+11 -11
+12 -12
+13 -13
+14 -14
+15 -15
+16 -16
+17 -17
+18 -18
+19 -19
+20 -20
+21 -21
+22 -22
+23 -23
+24 -24
+25 -25
+26 -26
+27 -27
+28 -28
+29 -29
+30 -30
+31 -31
+32 -32
+33 -33
+34 -34
+35 -35
+36 -36
+37 -37
+38 -38
+39 -39
+40 -40
+41 -41
+42 -42
+43 -43
+44 -44
+45 -45
+46 -46
+47 -47
+48 -48
+49 -49
+50 -50
+51 -51
+52 -52
+53 -53
+54 -54
+55 -55
+56 -56
+57 -57
+58 -58
+59 -59
+60 -60
+61 -61
+62 -62
+63 -63
+64 -64
+65 -65
+66 -66
+67 -67
+68 -68
+69 -69
+70 -70
+71 -71
+72 -72
+73 -73
+74 -74
+75 -75
+76 -76
+77 -77
+78 -78
+79 -79
+80 -80
+81 -81
+82 -82
+83 -83
+84 -84
+85 -85
+86 -86
+87 -87
+88 -88
+89 -89
+90 -90
+91 -91
+92 -92
+93 -93
+94 -94
EOF
